(set-logic ALL)
(declare-fun i4 () Int)
(declare-fun i1 () Int)
(declare-fun i3 () Int)
(declare-fun it962 () Int)
(declare-fun it963 () Int)
(declare-fun i2 () Int)
(declare-fun it964 () Int)
(declare-fun it965 () Int)
(declare-fun it966 () Int)
(declare-fun it967 () Int)
(declare-fun it129 () Int)
(declare-fun it972 () Int)
(declare-fun it973 () Int)
(declare-fun it974 () Int)
(declare-fun it975 () Int)
(declare-fun it976 () Int)
(declare-fun it977 () Int)
(declare-fun it999 () Int)
(declare-fun it1000 () Int)
(declare-fun it1001 () Int)
(declare-fun it1002 () Int)
(declare-fun it1003 () Int)
(declare-fun it1004 () Int)
(declare-fun it540 () Int)
(declare-fun it716 () Int)
(declare-fun it706 () Int)
(assert (and (>= (+ i3 (- 2)) 0) (= (+ i1 (- 1)) 0) (>= (+ i4 (- 2)) 0)))
(assert (= (+ it962 (- 3)) 0))
(assert (= (+ (* i2 (- 1)) it963 (- 2)) 0))
(assert (= (+ (* i3 (- 1)) it964 1) 0))
(assert (= (+ it965 (* i4 (- 1))) 0))
(assert (= (+ it966 (* i3 (- 1)) 1) 0))
(assert (= (+ (* i3 (- 2)) it967 2) 0))
(assert (let ((a!1 (+ (+ 0 it965)
              (* (exp 2 it129) (+ 0 (- 1)))
              (* (+ 0 it967) (exp 2 (+ it129 (- 1))) (+ 0 (- 1)))))
      (a!2 (>= (+ (+ it965 (* it967 (- 1))) (- 1)) 0)))
  (and (>= (+ a!1 (+ 0 2)) (+ 0 0))
       (>= (+ it967 (- 1)) 0)
       (>= (+ it965 (* it967 (- 1))) 0)
       a!2
       (>= (+ it962 (- 3)) 0)
       (>= (+ a!1 (+ 0 1)) (+ 0 0))
       (>= (+ it129 (- 1)) 0)
       (>= (+ (* it962 (- 1)) 3) 0))))
(assert (= (+ (* it962 (- 1)) it972) 0))
(assert (= (+ (* it129 (- 1)) (* it963 (- 1)) it973) 0))
(assert (= (+ (* it964 (- 1)) it974) 0))
(assert (= (+ (* it965 (- 1)) it975) 0))
(assert (let ((a!1 (+ (* (exp 2 it129) (+ 0 (- 1)))
              (+ 0 it976)
              (* (+ 0 it967) (exp 2 (+ it129 (- 1))) (+ 0 (- 1)))
              (+ 0 1))))
  (= a!1 (+ 0 0))))
(assert (let ((a!1 (+ (* (exp 2 (+ it129 1)) (+ 0 (- 1)))
              (* (exp 2 it129) (+ 0 it967) (+ 0 (- 1)))
              (+ 0 it977)
              (+ 0 2))))
  (= a!1 (+ 0 0))))
(assert (let ((a!1 (>= (+ (+ it975 (* it977 (- 1))) (- 1)) 0)))
  (and (>= (+ it974 (- 1)) 0)
       (>= (+ it975 (* it977 (- 1))) 0)
       (>= (+ it974 (- 2)) 0)
       a!1
       (>= 0 0)
       (>= (+ it975 (- 4)) 0)
       (>= (+ (* it972 (- 1)) 3) 0)
       (>= (+ it975 (- 2)) 0)
       (>= (+ it972 (- 3)) 0)
       (<= (+ (* it974 2) (* it977 (- 1)) (- 2)) 0))))
(assert (= (+ it999 (* it972 (- 1))) 0))
(assert (= (+ it1000 (* it973 (- 1)) (* it974 (- 3)) 3) 0))
(assert (= (+ it1001 (- 1)) 0))
(assert (= (+ it1002 (* it975 (- 1))) 0))
(assert (= (+ it1003 (- 1)) 0))
(assert (= (+ it1004 (- 2)) 0))
(assert (let ((a!1 (+ it1002
              (* (+ it716 (- 1)) it540 (- 1))
              (* it706 (+ it716 (- 1)) (- 1))))
      (a!3 (>= (+ (+ it1002 (* it1004 (- 1))) (- 1)) 0))
      (a!5 (>= (+ (+ it1002 (* it706 (- 1)) (* it540 (- 1)))
                  (* it1001 (- 2))
                  (- 1))
               0))
      (a!6 (>= (+ (+ it1002 (* it1001 (- 2))) (- 1)) 0))
      (a!7 (>= (+ (+ it1002 (* it706 (- 1)) (* it540 (- 1))) (- 2)) 0))
      (a!8 (>= (+ (+ it1002 (* it540 (- 1))) (- 3)) 0))
      (a!12 (+ it1002 (* (* it540 it716) (- 1)) (* (* it706 it716) (- 1))))
      (a!13 (+ (+ (+ it1002 (* it540 (- 1))) (* it1001 (- 2))) (- 1)))
      (a!14 (>= (+ (+ it1002 (* it540 (- 1))) (- 2)) 0))
      (a!15 (>= (+ (+ it1002 (* it1001 (- 2))) (- 2)) 0))
      (a!16 (+ (+ (+ it1002 (* it540 (- 1))) (* it1001 (- 2))) (- 2))))
(let ((a!2 (>= (+ (+ a!1 (* it706 (- 1)) (* it540 (- 1)))
                  (* it1001 (- 2))
                  (- 1))
               0))
      (a!4 (+ (+ (+ a!1 (* it540 (- 1))) (* it1001 (- 2))) (- 2)))
      (a!9 (+ (+ (+ a!1 (* it540 (- 1))) (* it1001 (- 2))) (- 1)))
      (a!10 (>= (+ (+ a!1 (* it706 (- 1)) (* it540 (- 1))) (- 2)) 0))
      (a!11 (>= (+ (+ a!1 (* it540 (- 1))) (- 3)) 0))
      (a!17 (>= (+ (+ a!1 (* it540 (- 1))) (- 2)) 0)))
  (and a!2
       a!3
       (>= (+ it540 (- 1)) 0)
       (>= (+ it1002 (- 3)) 0)
       (>= (+ it1002 (* it1004 (- 1))) 0)
       (>= (+ (* it1001 (- 1)) 1) 0)
       (>= a!4 0)
       a!5
       a!6
       (= 0 0)
       a!7
       a!8
       (>= (+ it1002 (- 2)) 0)
       (>= a!9 0)
       a!10
       a!11
       (>= (+ a!12 (- 2)) 0)
       (>= (+ (* it999 (- 1)) 3) 0)
       (>= (+ it706 (- 1)) 0)
       (>= (+ it1001 (- 1)) 0)
       (>= a!13 0)
       (= (+ (* it540 it716) (* it706 it716) 1) 0)
       a!14
       (>= (+ it716 (- 1)) 0)
       (>= (+ a!1 (- 3)) 0)
       a!15
       (>= (+ a!12 (- 3)) 0)
       (>= (+ a!1 (* it1001 (- 2)) (- 2)) 0)
       (<= (+ (* it540 it716) (* it706 it716) 1) 0)
       (>= (+ it999 (- 3)) 0)
       (= (+ it1004 (* it1001 (- 2))) 0)
       (>= a!16 0)
       a!17))))
(check-sat)
